Speck32/MILP/sol/6Round_806.sol
# Objective value = 16.0
pro0Rd0 -7.632783294297951e-16
pro1Rd0 0.9999999999999991
pro2Rd0 -8.604228440844963e-16
pro3Rd0 1.0
pro4Rd0 0.0
pro5Rd0 -0.0
pro6Rd0 -0.0
pro7Rd0 -0.0
pro8Rd0 0.9999999999999981
pro9Rd0 -0.0
pro10Rd0 -0.0
pro11Rd0 -3.122502256758253e-17
pro12Rd0 -0.0
pro13Rd0 -0.0
pro14Rd0 0.0
pro0Rd1 -2.914335439641036e-16
pro1Rd1 -5.828670879282072e-16
pro2Rd1 2.0729945537922845e-16
pro3Rd1 4.822531263215524e-16
pro4Rd1 -0.0
pro5Rd1 -3.608224830031759e-16
pro6Rd1 1.0
pro7Rd1 -1.231653667943533e-16
pro8Rd1 1.0
pro9Rd1 1.4085954624931674e-15
pro10Rd1 1.139279642847768e-15
pro11Rd1 4.052314039881821e-15
pro12Rd1 -5.967448757360216e-16
pro13Rd1 2.040034807748725e-15
pro14Rd1 -5.551115123125783e-16
pro0Rd2 0.0
pro1Rd2 0.0
pro2Rd2 -9.159339953157541e-16
pro3Rd2 9.159339953157541e-16
pro4Rd2 4.163336342344337e-16
pro5Rd2 -5.551115123125783e-16
pro6Rd2 -0.0
pro7Rd2 2.0729945537922845e-16
pro8Rd2 6.006480035569695e-16
pro9Rd2 -0.0
pro10Rd2 -5.366800753803247e-17
pro11Rd2 -0.0
pro12Rd2 0.0
pro13Rd2 1.0
pro14Rd2 0.0
pro0Rd3 1.1193303228740348e-15
pro1Rd3 1.1193303228740348e-15
pro2Rd3 -0.0
pro3Rd3 -5.551115123125783e-16
pro4Rd3 -0.0
pro5Rd3 0.0
pro6Rd3 -0.0
pro7Rd3 -4.404029224636119e-16
pro8Rd3 6.087795198506107e-16
pro9Rd3 -0.0
pro10Rd3 0.0
pro11Rd3 1.0
pro12Rd3 -0.0
pro13Rd3 -0.0
pro14Rd3 -0.0
pro0Rd4 -1.1193303228740348e-15
pro1Rd4 0.0
pro2Rd4 1.0
pro3Rd4 1.2212453270876722e-15
pro4Rd4 -7.814929259275516e-16
pro5Rd4 2.9989032090949053e-16
pro6Rd4 -0.0
pro7Rd4 -4.358492733391728e-16
pro8Rd4 9.992007221626409e-16
pro9Rd4 1.0
pro10Rd4 -0.0
pro11Rd4 1.0
pro12Rd4 2.9989032090949053e-16
pro13Rd4 -1.0620844481668001e-15
pro14Rd4 -2.0686577451023425e-15
pro0Rd5 1.0
pro1Rd5 -0.0
pro2Rd5 1.0
pro3Rd5 -1.4994516045474526e-16
pro4Rd5 -0.0
pro5Rd5 5.152128723651117e-16
pro6Rd5 -3.3306690738754696e-16
pro7Rd5 1.0000000000000004
pro8Rd5 -9.43689570931383e-16
pro9Rd5 1.0000000000000016
pro10Rd5 1.0
pro11Rd5 0.9999999999999991
pro12Rd5 0.0
pro13Rd5 -0.0
pro14Rd5 0.0
p0 2.2065682614424986e-15
p1 4.163336342344337e-16
p2 1.0000000000000016
p3 -3.122502256758253e-17
p4 -2.6020852139652106e-16
p5 -3.122502256758253e-17
p6 5.551115123125783e-17
p7 -0.0
p8 -0.0
p9 0.9999999999999962
p10 -4.85722573273506e-16
p11 1.0
p12 5.551115123125783e-16
p13 0.9999999999999987
p14 2.2065682614424986e-15
p15 5.828670879282072e-16
p16 -9.159339953157541e-16
p17 -9.159339953157541e-16
p18 1.0061396160665481e-15
p19 -5.342948306008566e-16
p20 1.0
p21 1.3114509478384662e-15
p22 5.828670879282072e-16
p23 2.2065682614424986e-15
p24 4.163336342344337e-16
p25 2.2065682614424986e-15
p26 -3.122502256758253e-17
p27 -3.8163916471489756e-17
p28 -3.122502256758253e-17
p29 5.551115123125783e-17
p30 0.0
p31 0.0
p0Rd1 0.9999999999999994
p16Rd1 0.9999999999999996
temp0Rnd0 1.0
p1Rd1 -1.231653667943533e-16
p17Rd1 -2.740863092043355e-16
temp1Rnd0 -5.342948306008566e-16
p2Rd1 1.0
p18Rd1 0.0
temp2Rnd0 1.0
p3Rd1 1.4085954624931674e-15
p19Rd1 2.0729945537922845e-16
temp3Rnd0 1.4085954624931674e-15
p4Rd1 -0.0
p20Rd1 5.828670879282072e-16
temp4Rnd0 5.828670879282072e-16
p5Rd1 2.2065682614424986e-15
p21Rd1 0.0
temp5Rnd0 2.2065682614424986e-15
p6Rd1 5.828670879282072e-16
p22Rd1 -3.608224830031759e-16
temp6Rnd0 4.163336342344337e-16
p7Rd1 2.2065682614424986e-15
p23Rd1 -0.0
temp7Rnd0 2.2065682614424986e-15
p8Rd1 4.163336342344337e-16
p24Rd1 -2.463307335887066e-16
temp8Rnd0 1.249000902703301e-16
p9Rd1 1.0000000000000002
p25Rd1 1.0
temp9Rnd0 1.0
p10Rd1 -3.122502256758253e-17
p26Rd1 -0.0
temp10Rnd0 -3.122502256758253e-17
p11Rd1 -2.6020852139652106e-16
p27Rd1 1.139279642847768e-15
temp11Rnd0 5.828670879282072e-16
p12Rd1 -0.0
p28Rd1 0.0
temp12Rnd0 0.0
p13Rd1 5.551115123125783e-17
p29Rd1 5.551115123125783e-17
temp13Rnd0 5.551115123125783e-17
p14Rd1 0.0
p30Rd1 -9.159339953157541e-16
temp14Rnd0 -9.159339953157541e-16
p15Rd1 -0.0
p31Rd1 -9.159339953157541e-16
temp15Rnd0 -9.159339953157541e-16
temp0 0.0
p0Rd2 0.0
p16Rd2 0.0
temp0Rnd1 0.0
p1Rd2 2.0729945537922845e-16
p17Rd2 -0.0
temp1Rnd1 2.0729945537922845e-16
p2Rd2 -5.828670879282072e-16
p18Rd2 0.0
temp2Rnd1 0.0
p3Rd2 0.0
p19Rd2 -0.0
temp3Rnd1 0.0
p4Rd2 -3.608224830031759e-16
p20Rd2 -0.0
temp4Rnd1 -3.608224830031759e-16
p5Rd2 0.0
p21Rd2 -0.0
temp5Rnd1 -0.0
p6Rd2 -7.216449660063518e-16
p22Rd2 -5.551115123125783e-16
temp6Rnd1 -5.551115123125783e-16
p7Rd2 1.0
p23Rd2 0.0
temp7Rnd1 1.0
p8Rd2 0.0
p24Rd2 -0.0
temp8Rnd1 0.0
p9Rd2 -0.0
p25Rd2 1.139279642847768e-15
temp9Rnd1 1.139279642847768e-15
p10Rd2 -0.0
p26Rd2 0.0
temp10Rnd1 -0.0
p11Rd2 -2.0261570199409107e-15
p27Rd2 -5.366800753803247e-17
temp11Rnd1 -2.0261570199409107e-15
p12Rd2 -9.159339953157541e-16
p28Rd2 -0.0
temp12Rnd1 -9.159339953157541e-16
p13Rd2 9.159339953157541e-16
p29Rd2 -0.0
temp13Rnd1 0.0
p14Rd2 4.163336342344337e-16
p30Rd2 1.0
temp14Rnd1 1.0
p15Rd2 -5.551115123125783e-16
p31Rd2 0.0
temp15Rnd1 -5.134781488891349e-16
temp1 -5.551115123125783e-16
p0Rd3 -0.0
p16Rd3 -0.0
temp0Rnd2 0.0
p1Rd3 -0.0
p17Rd3 -0.0
temp1Rnd2 0.0
p2Rd3 -1.104802013762729e-16
p18Rd3 -5.551115123125783e-16
temp2Rnd2 -3.3306690738754696e-16
p3Rd3 -0.0
p19Rd3 0.0
temp3Rnd2 0.0
p4Rd3 -0.0
p20Rd3 -5.551115123125783e-16
temp4Rnd2 -5.551115123125783e-16
p5Rd3 0.0
p21Rd3 0.0
temp5Rnd2 0.0
p6Rd3 -0.0
p22Rd3 -0.0
temp6Rnd2 0.0
p7Rd3 -0.0
p23Rd3 1.139279642847768e-15
temp7Rnd2 1.139279642847768e-15
p8Rd3 -0.0
p24Rd3 0.0
temp8Rnd2 -0.0
p9Rd3 -0.0
p25Rd3 5.735429492448318e-17
temp9Rnd2 5.735429492448318e-17
p10Rd3 -0.0
p26Rd3 0.0
temp10Rnd2 -0.0
p11Rd3 0.0
p27Rd3 -0.0
temp11Rnd2 0.0
p12Rd3 0.0
p28Rd3 1.0
temp12Rnd2 1.0
p13Rd3 0.0
p29Rd3 -0.0
temp13Rnd2 0.0
p14Rd3 -0.0
p30Rd3 -0.0
temp14Rnd2 -0.0
p15Rd3 -0.0
p31Rd3 0.0
temp15Rnd2 0.0
temp2 -0.0
p0Rd4 5.108760636751697e-16
p16Rd4 -0.0
temp0Rnd3 -3.0531133177191805e-16
p1Rd4 1.1193303228740348e-15
p17Rd4 1.1193303228740348e-15
temp1Rnd3 1.1193303228740348e-15
p2Rd4 -5.551115123125783e-16
p18Rd4 -0.0
temp2Rnd3 -5.551115123125783e-16
p3Rd4 0.0
p19Rd4 -0.0
temp3Rnd3 -0.0
p4Rd4 -5.551115123125783e-16
p20Rd4 -5.551115123125783e-16
temp4Rnd3 -5.551115123125783e-16
p5Rd4 -0.0
p21Rd4 1.139279642847768e-15
temp5Rnd3 1.139279642847768e-15
p6Rd4 -0.0
p22Rd4 -0.0
temp6Rnd3 0.0
p7Rd4 1.139279642847768e-15
p23Rd4 2.9989032090949053e-16
temp7Rnd3 4.891920202254596e-16
p8Rd4 -4.404029224636119e-16
p24Rd4 -4.404029224636119e-16
temp8Rnd3 -4.404029224636119e-16
p9Rd4 0.0
p25Rd4 0.0
temp9Rnd3 -0.0
p10Rd4 0.0
p26Rd4 1.0
temp10Rnd3 1.0
p11Rd4 0.0
p27Rd4 0.0
temp11Rnd3 -0.0
p12Rd4 1.0
p28Rd4 1.0
temp12Rnd3 1.0
p13Rd4 0.0
p29Rd4 -0.0
temp13Rnd3 0.0
p14Rd4 -0.0
p30Rd4 0.0
temp14Rnd3 0.0
p15Rd4 -0.0
p31Rd4 -0.0
temp15Rnd3 0.0
temp3 0.0
p0Rd5 -0.0
p16Rd5 0.0
temp0Rnd4 -0.0
p1Rd5 0.0
p17Rd5 0.0
temp1Rnd4 -0.0
p2Rd5 -0.0
p18Rd5 -1.1102230246251565e-16
temp2Rnd4 -1.1102230246251565e-16
p3Rd5 0.9999999999999998
p19Rd5 1.0
temp3Rnd4 1.0
p4Rd5 -0.0
p20Rd5 0.0
temp4Rnd4 -0.0
p5Rd5 -0.0
p21Rd5 -4.497270611469872e-16
temp5Rnd4 -2.415602440297704e-16
p6Rd5 2.9989032090949053e-16
p22Rd5 -1.850949948867253e-15
temp6Rnd4 -3.872770160118222e-16
p7Rd5 5.108760636751697e-16
p23Rd5 6.982261990806649e-17
temp7Rnd4 6.982261990806649e-17
p8Rd5 1.734723475976807e-18
p24Rd5 1.0
temp8Rnd4 1.0
p9Rd5 1.4432899320127035e-15
p25Rd5 1.4432899320127035e-15
temp9Rnd4 1.4432899320127035e-15
p10Rd5 1.0
p26Rd5 0.0
temp10Rnd4 1.0
p11Rd5 -1.1102230246251565e-16
p27Rd5 7.771561172376096e-16
temp11Rnd4 2.7755575615628914e-16
p12Rd5 0.9999999999999996
p28Rd5 0.9999999999999991
temp12Rnd4 0.9999999999999996
p13Rd5 2.9989032090949053e-16
p29Rd5 2.9989032090949053e-16
temp13Rnd4 2.9989032090949053e-16
p14Rd5 -4.497270611469872e-16
p30Rd5 2.7321894746634712e-17
temp14Rnd4 -2.406386721831577e-16
p15Rd5 -2.3626933742804113e-15
p31Rd5 -1.734723475976807e-18
temp15Rnd4 -6.2363308961366215e-16
temp4 -2.0686577451023425e-15
p0Rd6 -0.0
p16Rd6 -1.1102230246251565e-16
temp0Rnd5 -1.1102230246251565e-16
p1Rd6 1.0
p17Rd6 -1.1102230246251565e-16
temp1Rnd5 1.0
p2Rd6 -1.1102230246251565e-16
p18Rd6 -1.1102230246251565e-16
temp2Rnd5 -1.1102230246251565e-16
p3Rd6 -2.9989032090949053e-16
p19Rd6 -7.177418381854039e-17
temp3Rnd5 -2.9989032090949053e-16
p4Rd6 -1.4994516045474526e-16
p20Rd6 7.632783294297951e-16
temp4Rnd5 -1.4994516045474526e-16
p5Rd6 -4.497270611469872e-16
p21Rd6 -0.0
temp5Rnd5 -4.910893740273092e-16
p6Rd6 -1.734723475976807e-18
p22Rd6 1.0
temp6Rnd5 1.0
p7Rd6 1.4432899320127035e-15
p23Rd6 -0.0
temp7Rnd5 1.4432899320127035e-15
p8Rd6 0.9999999999999984
p24Rd6 0.9999999999999989
temp8Rnd5 0.9999999999999984
p9Rd6 9.992007221626409e-16
p25Rd6 -0.0
temp9Rnd5 7.771561172376096e-16
p10Rd6 0.9999999999999991
p26Rd6 -0.0
temp10Rnd5 0.9999999999999991
p11Rd6 1.0
p27Rd6 1.0
temp11Rnd5 1.0
p12Rd6 1.0000000000000004
p28Rd6 1.0
temp12Rnd5 1.0
p13Rd6 2.9989032090949053e-16
p29Rd6 -0.0
temp13Rnd5 2.0166160408230382e-16
p14Rd6 1.938553484404082e-16
p30Rd6 -2.220446049250313e-16
temp14Rnd5 0.0
p15Rd6 -0.0
p31Rd6 0.0
temp15Rnd5 0.0
temp5 0.0
